VER
4

OBJSENSE
MIN

QCECONES
1 2
2
2 2 2 2
0

VAR
137 1
@0:SVECQCE 137

CON
38 1
L= 38

OBJACOORD
20
1 1.0
3 1.0
6 1.0
10 1.0
15 -1.0
21 -1.0
28 -1.0
36 -1.0
41 -2.8284271247461903
45 -1.0
51 -2.8284271247461903
55 -1.0
62 -2.8284271247461903
66 -1.0
74 -2.8284271247461903
78 -1.0
91 1.0
105 1.0
120 1.0
136 1.0

ACOORD
157
0 3 -1.0
0 45 1.0
1 2 1.0
1 4 -1.0
1 8 -1.0
1 54 1.0
2 3 1.0
2 6 -1.0
2 10 -1.0
2 55 1.0
3 4 1.0
3 11 -1.0
3 17 -1.0
3 64 1.0
4 5 1.0
4 13 -1.0
4 19 -1.0
4 65 1.0
5 6 1.0
5 15 -1.0
5 21 -1.0
5 66 1.0
6 7 1.0
6 22 -1.0
6 30 -1.0
6 75 1.0
7 8 1.0
7 24 -1.0
7 32 -1.0
7 76 1.0
8 9 1.0
8 26 -1.0
8 34 -1.0
8 77 1.0
9 10 1.0
9 28 -1.0
9 36 -1.0
9 78 1.0
10 11 1.0
10 37 -1.0
10 47 -1.0
10 87 1.0
11 12 1.0
11 39 -1.0
11 49 -1.0
11 88 1.0
12 13 1.0
12 41 -1.0
12 51 -1.0
12 89 1.0
13 14 1.0
13 43 -1.0
13 53 -1.0
13 90 1.0
14 15 1.0
14 45 -1.0
14 55 -1.0
14 91 1.0
15 16 1.0
15 56 -1.0
15 68 -1.0
15 100 1.0
16 17 1.0
16 58 -1.0
16 70 -1.0
16 101 1.0
17 18 1.0
17 60 -1.0
17 72 -1.0
17 102 1.0
18 19 1.0
18 62 -1.0
18 74 -1.0
18 103 1.0
19 20 1.0
19 64 -1.0
19 76 -1.0
19 104 1.0
20 21 1.0
20 66 -1.0
20 78 -1.0
20 105 1.0
21 22 1.0
21 79 -1.0
21 93 -1.0
21 114 1.0
22 23 1.0
22 81 -1.0
22 95 -1.0
22 115 1.0
23 24 1.0
23 83 -1.0
23 97 -1.0
23 116 1.0
24 25 1.0
24 85 -1.0
24 99 -1.0
24 117 1.0
25 26 1.0
25 87 -1.0
25 101 -1.0
25 118 1.0
26 27 1.0
26 89 -1.0
26 103 -1.0
26 119 1.0
27 28 1.0
27 91 -1.0
27 105 -1.0
27 120 1.0
28 29 1.0
28 106 -1.0
28 122 -1.0
28 129 1.0
29 30 1.0
29 108 -1.0
29 124 -1.0
29 130 1.0
30 31 1.0
30 110 -1.0
30 126 -1.0
30 131 1.0
31 32 1.0
31 112 -1.0
31 128 -1.0
31 132 1.0
32 33 1.0
32 114 -1.0
32 130 -1.0
32 133 1.0
33 34 1.0
33 116 -1.0
33 132 -1.0
33 134 1.0
34 35 1.0
34 118 -1.0
34 134 -1.0
34 135 1.0
35 36 1.0
35 120 -1.0
36 1 1.0
36 3 1.0
36 6 1.0
36 10 1.0
36 15 1.0
36 21 1.0
36 28 1.0
36 36 1.0
36 45 1.0
36 55 1.0
36 66 1.0
36 78 1.0
36 91 1.0
36 105 1.0
36 120 1.0
36 136 1.0
37 0 1.0

BCOORD
1
36 1.0
